p cnf 81 404
1 2 3 0
4 5 6 0
7 8 9 0
10 11 12 13 0
14 15 16 17 18 19 0
20 21 22 23 0
24 25 26 27 0
28 29 30 31 32 0
36 37 38 39 40 0
41 42 43 44 0
45 46 0
47 48 49 50 51 0
52 53 54 55 56 0
57 58 59 60 61 0
62 63 64 65 0
66 67 68 69 0
70 71 72 0
73 74 75 76 77 78 0
-4 -10 0
-4 -14 0
-4 -24 0
-4 -28 0
-4 -36 0
-4 -47 0
-4 -52 0
-4 -57 0
-4 -62 0
-4 -66 0
-10 -14 0
-10 -24 0
-10 -28 0
-10 -36 0
-10 -47 0
-10 -52 0
-10 -57 0
-10 -62 0
-10 -66 0
-14 -24 0
-14 -28 0
-14 -36 0
-14 -47 0
-14 -52 0
-14 -57 0
-14 -62 0
-14 -66 0
-24 -28 0
-24 -36 0
-24 -47 0
-24 -52 0
-24 -57 0
-24 -62 0
-24 -66 0
-28 -36 0
-28 -47 0
-28 -52 0
-28 -57 0
-28 -62 0
-28 -66 0
-36 -47 0
-36 -52 0
-36 -57 0
-36 -62 0
-36 -66 0
-47 -52 0
-47 -57 0
-47 -62 0
-47 -66 0
-52 -57 0
-52 -62 0
-52 -66 0
-57 -62 0
-57 -66 0
-62 -66 0
-5 -7 0
-5 -11 0
-5 -15 0
-5 -33 0
-5 -41 0
-5 -48 0
-5 -58 0
-5 -73 0
-5 -79 0
-7 -11 0
-7 -15 0
-7 -33 0
-7 -41 0
-7 -48 0
-7 -58 0
-7 -73 0
-7 -79 0
-11 -15 0
-11 -33 0
-11 -41 0
-11 -48 0
-11 -58 0
-11 -73 0
-11 -79 0
-15 -33 0
-15 -41 0
-15 -48 0
-15 -58 0
-15 -73 0
-15 -79 0
-33 -41 0
-33 -48 0
-33 -58 0
-33 -73 0
-33 -79 0
-41 -48 0
-41 -58 0
-41 -73 0
-41 -79 0
-48 -58 0
-48 -73 0
-48 -79 0
-58 -73 0
-58 -79 0
-73 -79 0
-1 -8 0
-1 -16 0
-1 -20 0
-1 -25 0
-1 -29 0
-1 -34 0
-1 -37 0
-1 -42 0
-1 -45 0
-1 -49 0
-1 -53 0
-1 -74 0
-8 -16 0
-8 -20 0
-8 -25 0
-8 -29 0
-8 -34 0
-8 -37 0
-8 -42 0
-8 -45 0
-8 -49 0
-8 -53 0
-8 -74 0
-16 -20 0
-16 -25 0
-16 -29 0
-16 -34 0
-16 -37 0
-16 -42 0
-16 -45 0
-16 -49 0
-16 -53 0
-16 -74 0
-20 -25 0
-20 -29 0
-20 -34 0
-20 -37 0
-20 -42 0
-20 -45 0
-20 -49 0
-20 -53 0
-20 -74 0
-25 -29 0
-25 -34 0
-25 -37 0
-25 -42 0
-25 -45 0
-25 -49 0
-25 -53 0
-25 -74 0
-29 -34 0
-29 -37 0
-29 -42 0
-29 -45 0
-29 -49 0
-29 -53 0
-29 -74 0
-34 -37 0
-34 -42 0
-34 -45 0
-34 -49 0
-34 -53 0
-34 -74 0
-37 -42 0
-37 -45 0
-37 -49 0
-37 -53 0
-37 -74 0
-42 -45 0
-42 -49 0
-42 -53 0
-42 -74 0
-45 -49 0
-45 -53 0
-45 -74 0
-49 -53 0
-49 -74 0
-53 -74 0
-17 -21 0
-17 -26 0
-17 -30 0
-17 -46 0
-17 -54 0
-17 -63 0
-17 -67 0
-17 -70 0
-17 -75 0
-21 -26 0
-21 -30 0
-21 -46 0
-21 -54 0
-21 -63 0
-21 -67 0
-21 -70 0
-21 -75 0
-26 -30 0
-26 -46 0
-26 -54 0
-26 -63 0
-26 -67 0
-26 -70 0
-26 -75 0
-30 -46 0
-30 -54 0
-30 -63 0
-30 -67 0
-30 -70 0
-30 -75 0
-46 -54 0
-46 -63 0
-46 -67 0
-46 -70 0
-46 -75 0
-54 -63 0
-54 -67 0
-54 -70 0
-54 -75 0
-63 -67 0
-63 -70 0
-63 -75 0
-67 -70 0
-67 -75 0
-70 -75 0
-2 -18 0
-2 -27 0
-2 -31 0
-2 -35 0
-2 -38 0
-2 -43 0
-2 -55 0
-2 -64 0
-2 -68 0
-2 -71 0
-2 -76 0
-18 -27 0
-18 -31 0
-18 -35 0
-18 -38 0
-18 -43 0
-18 -55 0
-18 -64 0
-18 -68 0
-18 -71 0
-18 -76 0
-27 -31 0
-27 -35 0
-27 -38 0
-27 -43 0
-27 -55 0
-27 -64 0
-27 -68 0
-27 -71 0
-27 -76 0
-31 -35 0
-31 -38 0
-31 -43 0
-31 -55 0
-31 -64 0
-31 -68 0
-31 -71 0
-31 -76 0
-35 -38 0
-35 -43 0
-35 -55 0
-35 -64 0
-35 -68 0
-35 -71 0
-35 -76 0
-38 -43 0
-38 -55 0
-38 -64 0
-38 -68 0
-38 -71 0
-38 -76 0
-43 -55 0
-43 -64 0
-43 -68 0
-43 -71 0
-43 -76 0
-55 -64 0
-55 -68 0
-55 -71 0
-55 -76 0
-64 -68 0
-64 -71 0
-64 -76 0
-68 -71 0
-68 -76 0
-71 -76 0
-9 -12 0
-9 -19 0
-9 -39 0
-9 -59 0
-9 -65 0
-9 -80 0
-12 -19 0
-12 -39 0
-12 -59 0
-12 -65 0
-12 -80 0
-19 -39 0
-19 -59 0
-19 -65 0
-19 -80 0
-39 -59 0
-39 -65 0
-39 -80 0
-59 -65 0
-59 -80 0
-65 -80 0
-3 -6 0
-3 -22 0
-3 -32 0
-3 -40 0
-3 -44 0
-3 -50 0
-3 -60 0
-3 -69 0
-3 -77 0
-3 -81 0
-6 -22 0
-6 -32 0
-6 -40 0
-6 -44 0
-6 -50 0
-6 -60 0
-6 -69 0
-6 -77 0
-6 -81 0
-22 -32 0
-22 -40 0
-22 -44 0
-22 -50 0
-22 -60 0
-22 -69 0
-22 -77 0
-22 -81 0
-32 -40 0
-32 -44 0
-32 -50 0
-32 -60 0
-32 -69 0
-32 -77 0
-32 -81 0
-40 -44 0
-40 -50 0
-40 -60 0
-40 -69 0
-40 -77 0
-40 -81 0
-44 -50 0
-44 -60 0
-44 -69 0
-44 -77 0
-44 -81 0
-50 -60 0
-50 -69 0
-50 -77 0
-50 -81 0
-60 -69 0
-60 -77 0
-60 -81 0
-69 -77 0
-69 -81 0
-77 -81 0
-13 -23 0
-13 -51 0
-13 -56 0
-13 -61 0
-13 -72 0
-13 -78 0
-23 -51 0
-23 -56 0
-23 -61 0
-23 -72 0
-23 -78 0
-51 -56 0
-51 -61 0
-51 -72 0
-51 -78 0
-56 -61 0
-56 -72 0
-56 -78 0
-61 -72 0
-61 -78 0
-72 -78 0
